c Sudoku solution
p cnf 729 0
164 0
227 0
239 0
286 0
322 0
356 0
374 0
214 0
381 0
395 0
435 0
452 0
517 0
536 0
555 0
563 0
599 0
632 0
657 0
691 0
726 0
116 0
125 0
131 0
737 0
758 0
792 0
878 0
572 0
273 0
182 0
298 0
197 0
179 0
148 0
153 0
251 0
885 0
771 0
675 0
765 0
915 0
812 0
411 0
541 0
245 0
262 0
942 0
588 0
524 0
743 0
719 0
784 0
989 0
977 0
954 0
859 0
834 0
476 0
487 0
683 0
494 0
423 0
618 0
629 0
449 0
644 0
666 0
468 0
313 0
338 0
821 0
961 0
893 0
996 0
928 0
933 0
846 0
867 0
347 0
369 0
